30
5
688497
0
0
30 131 7 8 5
1
0
44 60 12 9 7
2
0
39 118 5 9 6
3
0
57 151 5 5 6
4
0
40 134 9 8 4
5
0
67 154 6 10 5
6
0
50 113 11 9 6
7
0
47 115 11 10 5
8
0
37 119 8 6 6
9
0
54 107 7 23 9
10
0
40 139 6 18 4
11
0
40 91 6 10 6
12
0
52 125 9 7 6
13
0
59 154 4 8 6
14
0
53 150 5 6 10
15
0
37 91 6 10 7
16
0
34 146 6 8 7
17
0
46 105 7 6 6
18
0
51 99 8 9 11
19
0
51 116 8 8 5
20
0
42 119 14 10 10
21
0
47 80 5 11 9
22
0
63 127 11 5 10
23
0
41 102 7 6 7
24
0
56 103 10 8 8
25
0
63 98 4 11 9
26
0
56 118 5 8 7
27
0
33 103 7 6 5
28
0
45 92 16 6 5
29
0
46 160 12 14 11
